1618 1612 1508 1475 1414 1378 1346 1327 1283 1259 1252 1207 1166 1166 1143 1110 1075 1075 1060 1049 1044 1030 1009 1005 1001 982 968 962 938 938 923 913 899 894 868 867 856 848 835 828 815 815 815 805 805 802 795 792 791 789 785 775 772 772 764 764 755 750 746 746 746 742 742 741 739 731 731 731 728 728 728 719 717 717 714 708 705 705 701 696 696 695 691 691 690 686 686 679 679 675 673 670 670 668 665 664 664 662 662 661 659 659 659 659 658 658 658 658 657 657 656 656 654 654 654 654 654 654 654 654 654 654 654 654 654 654 654 654 654 654 654 654 654 654 654 654 654 654 654 654 654 654 654 654 654 654 654 654 654 654 654 654 654 654 654 654 654 654 654 654 654 654 654 654 654 654 654 654 654 654 654 654 654 654 654 654 654 654 654 654 654 654 654 654 654 654 654 654 654 654 654 654 654 654 654 654 654 654 654 654 654 654 654 654 654 654 654 654 654 654 654 654 654 654 654 654 654 654 654 654 654 654 654 654 654 654 654 654 654 654 654 654 654 654 654 654 654 654 654 654 654 654 654 654 654 654 654 654 654 654 654 654 654 654 654 654 654 654 654 654 654 654 654 654 654 654 654 654 654 654 654 654 654 654 654 654 654 654 654 654 654 654 654 654 654 654 654 654 654 654 654 654 654 654 654 654 654 654 654 654 654 654 654 654 654 654 654 654 654 654 654 654 654 654 654 654 654 654 654 654 654 654 654 654 654 654 654 654 654 654 654 654 654 654 654 654 654 654 654 654 654 654 654 654 654 654 654 654 654 654 654 654 654 654 654 654 654 654 654 654 654 654 654 654 654 654 654 654 654 654 654 654 654 654 654 654 654 654 654 654 654 654 654 654 654 654 654 654 654 654 654 654 654 654 654 654 654 654 654 654 654 654 654 654 654 654 654 654 654 654 654 654 654 654 654 654 654 654 654 654 654 654 654 654 654 654 654 654 654 654 654 654 654 654 654 654 654 654 654 654 654 654 654 654 654 654 654 654 654 654 654 654 654 654 654 654 654 654 654 654 654 654 654 654 654 654 654 654 654 654 654 654 654 654 654 654 654 654 654 654 654 654 654 654 654 654 654 654 654 654 654 654 654 654 654 654 654 654 654 654 654 654 654 654 654 654 654 654 654 654 654 654 654 654 654 654 654 654 654 654 654 654 654 654 654 654 654 654 654 654 654 654 654 654 654 654 654 654 654 654 654 654 654 654 654 654 654 654 654 654 654 654 654 654 654 654 654 654 654 654 654 654 654 654 654 654 654 654 654 654 654 654 654 654 654 654 654 654 654 654 654 654 654 654 654 654 654 654 654 654 654 654 654 654 654 654 654 654 654 654 654 654 654 654 654 654 654 654 654 654 654 654 654 654 654 654 654 654 654 654 654 654 654 654 654 654 654 654 654 654 654 654 654 654 654 654 654 654 654 654 654 654 654 654 654 654 654 654 654 654 654 654 654 654 654 654 654 654 654 654 654 654 654 654 654 654 654 654 654 654 654 654 654 654 654 654 654 654 654 654 654 654 654 654 654 654 654 654 654 654 654 654 654 654 654 654 654 654 654 654 654 654 654 654 654 654 654 654 654 654 654 654 654 654 654 654 654 654 654 654 654 654 654 654 654 654 654 654 654 654 654 654 654 654 654 654 654 654 654 654 654 654 654 654 654 654 654 654 654 654 654 654 654 654 654 654 654 654 654 654 654 654 654 654 654 654 654 654 654 654 654 654 654 654 654 654 654 654 654 654 654 654 654 654 654 654 654 654 654 654 654 654 654 654 654 654 654 654 654 654 654 654 654 654 654 654 654 654 654 654 654 654 654 654 654 654 654 654 654 654 654 654 654 654 654 654 654 654 654 654 654 654 654 654 654 654 654 654 654 654 654 654 654 654 654 654 654 654 654 654 654 654 654 654 654 654 654 654 654 654 654 654 654 654 654 654 654 654 654 654 654 654 654 654 654 654 654 654 654 654 654 654 654 654 654 654 654 654 654 654 654 654 654 654 654 654 654 654 654 654 654 654 654 654 654 654 654 654 654 654 654 654 654 654 654 654 654 654 654 654 654 654 654 654 654 654 654 654 654 654 654 654 654 654 654 654 654 654 654 654 654 654 654 654 654 654 654 654 654 654 654 654 654 653 653 653 653 653 653 653 653 653 653 653 653 653 653 653 653 653 653 653 653 653 653 653 653 653 653 653 653 653 653 653 653 653 653 653 653 653 653 653 653 653 653 653 653 653 653 653 
1883 1775 1698 1638 1582 1529 1481 1439 1404 1373 1347 1317 1285 1256 1230 1206 1187 1168 1146 1125 1102 1082 1064 1049 1038 1026 1013 999 985 971 957 946 935 925 912 898 887 877 866 857 850 839 830 825 819 814 810 804 800 798 794 791 789 787 784 778 773 770 767 762 756 749 747 745 744 742 741 740 738 736 733 730 728 727 725 721 717 715 711 706 703 700 697 695 694 693 690 689 685 684 681 679 675 672 669 669 668 667 666 664 663 662 661 660 659 658 658 658 658 657 657 657 657 656 655 655 655 654 654 654 654 654 654 654 654 654 654 654 654 654 654 654 654 654 654 654 654 654 654 654 654 654 654 654 654 654 654 654 654 654 654 654 654 654 654 654 654 654 654 654 654 654 654 654 654 654 654 654 654 654 654 654 654 654 654 654 654 654 654 654 654 654 654 654 654 654 654 654 654 654 654 654 654 654 654 654 654 654 654 654 654 654 654 654 654 654 654 654 654 654 654 654 654 654 654 654 654 654 654 654 654 654 654 654 654 654 654 654 654 654 654 654 654 654 654 654 654 654 654 654 654 654 654 654 654 654 654 654 654 654 654 654 654 654 654 654 654 654 654 654 654 654 654 654 654 654 654 654 654 654 654 654 654 654 654 654 654 654 654 654 654 654 654 654 654 654 654 654 654 654 654 654 654 654 654 654 654 654 654 654 654 654 654 654 654 654 654 654 654 654 654 654 654 654 654 654 654 654 654 654 654 654 654 654 654 654 654 654 654 654 654 654 654 654 654 654 654 654 654 654 654 654 654 654 654 654 654 654 654 654 654 654 654 654 654 654 654 654 654 654 654 654 654 654 654 654 654 654 654 654 654 654 654 654 654 654 654 654 654 654 654 654 654 654 654 654 654 654 654 654 654 654 654 654 654 654 654 654 654 654 654 654 654 654 654 654 654 654 654 654 654 654 654 654 654 654 654 654 654 654 654 654 654 654 654 654 654 654 654 654 654 654 654 654 654 654 654 654 654 654 654 654 654 654 654 654 654 654 654 654 654 654 654 654 654 654 654 654 654 654 654 654 654 654 654 654 654 654 654 654 654 654 654 654 654 654 654 654 654 654 654 654 654 654 654 654 654 654 654 654 654 654 654 654 654 654 654 654 654 654 654 654 654 654 654 654 654 654 654 654 654 654 654 654 654 654 654 654 654 654 654 654 654 654 654 654 654 654 654 654 654 654 654 654 654 654 654 654 654 654 654 654 654 654 654 654 654 654 654 654 654 654 654 654 654 654 654 654 654 654 654 654 654 654 654 654 654 654 654 654 654 654 654 654 654 654 654 654 654 654 654 654 654 654 654 654 654 654 654 654 654 654 654 654 654 654 654 654 654 654 654 654 654 654 654 654 654 654 654 654 654 654 654 654 654 654 654 654 654 654 654 654 654 654 654 654 654 654 654 654 654 654 654 654 654 654 654 654 654 654 654 654 654 654 654 654 654 654 654 654 654 654 654 654 654 654 654 654 654 654 654 654 654 654 654 654 654 654 654 654 654 654 654 654 654 654 654 654 654 654 654 654 654 654 654 654 654 654 654 654 654 654 654 654 654 654 654 654 654 654 654 654 654 654 654 654 654 654 654 654 654 654 654 654 654 654 654 654 654 654 654 654 654 654 654 654 654 654 654 654 654 654 654 654 654 654 654 654 654 654 654 654 654 654 654 654 654 654 654 654 654 654 654 654 654 654 654 654 654 654 654 654 654 654 654 654 654 654 654 654 654 654 654 654 654 654 654 654 654 654 654 654 654 654 654 654 654 654 654 654 654 654 654 654 654 654 654 654 654 654 654 654 654 654 654 654 654 654 654 654 654 654 654 654 654 654 654 654 654 654 654 654 654 654 654 654 654 654 654 654 654 654 654 654 654 654 654 654 654 654 654 654 654 654 654 654 654 654 654 654 654 654 654 654 654 654 654 654 654 654 654 654 654 654 654 654 654 654 654 654 654 654 654 654 654 654 654 654 654 654 654 654 654 654 654 654 654 654 654 654 654 654 654 654 654 654 654 654 654 654 654 654 654 654 654 654 654 654 654 654 654 654 654 654 654 654 654 654 654 654 654 654 654 654 654 654 654 654 654 654 654 654 654 654 654 654 654 654 654 654 654 654 654 654 654 654 654 654 654 654 654 654 654 653 653 653 653 653 653 653 653 653 653 653 653 653 653 653 653 653 653 653 653 653 653 653 653 653 653 653 653 653 653 653 653 653 653 653 653 653 653 653 653 653 653 653 653 653 653 653 